p cnf 29 70
-1 -23 -4 0
1 -23 4 0
-4 -24 -7 0
4 -24 7 0
-7 -25 -10 0
7 -25 10 0
-10 -26 -13 0
10 -26 13 0
-13 -27 -16 0
13 -27 16 0
-16 -28 -19 0
16 -28 19 0
-19 -29 -22 0
19 -29 22 0
-1 -23 2 0
-2 1 0
-2 23 0
2 -1 4 0
1 -23 3 0
-3 -1 0
-3 23 0
3 1 -4 0
-4 -24 5 0
-5 4 0
-5 24 0
5 -4 7 0
4 -24 6 0
-6 -4 0
-6 24 0
6 4 -7 0
-7 -25 8 0
-8 7 0
-8 25 0
8 -7 10 0
7 -25 9 0
-9 -7 0
-9 25 0
9 7 -10 0
-10 -26 11 0
-11 10 0
-11 26 0
11 -10 13 0
10 -26 12 0
-12 -10 0
-12 26 0
12 10 -13 0
-13 -27 14 0
-14 13 0
-14 27 0
14 -13 16 0
13 -27 15 0
-15 -13 0
-15 27 0
15 13 -16 0
-16 -28 17 0
-17 16 0
-17 28 0
17 -16 19 0
16 -28 18 0
-18 -16 0
-18 28 0
18 16 -19 0
-19 -29 20 0
-20 19 0
-20 29 0
20 -19 22 0
19 -29 21 0
-21 -19 0
-21 29 0
21 19 -22 0
